34
0 0
7 14
39
25
7 0
24 5
38
24
24 0
33 17
35
22
7 5
21 12
36
22
21 5
23 39
37
23
0 14
18 18
34
21
0 18
17 23
33
21
18 12
21 43
32
20
23 17
27 45
30
19
27 17
30 40
31
19
30 17
34 41
29
18
0 23
18 31
28
17
0 31
3 48
27
17
3 31
6 47
26
16
6 31
11 40
25
16
6 40
15 59
24
15
15 45
31 52
23
15
15 52
31 57
22
14
15 57
30 61
21
14
0 48
6 68
19
13
6 61
19 68
20
13
30 57
34 85
18
12
0 68
14 73
17
12
19 61
27 72
16
11
14 72
20 81
15
11
20 72
27 85
13
10
27 61
30 87
11
8
0 73
2 97
14
10
2 73
13 80
12
9
2 80
12 86
10
8
12 81
20 100
9
7
20 85
24 115
7
6
2 86
11 91
5
5
24 85
26 118
4
4
30 85
34 119
2
3
26 87
30 117
1
2
2 91
12 106
6
5
12 100
15 118
3
4
0 106
9 115
0
1
15 100
19 119
8
6
